
******************************************************************************
This program contains Ipopt, a library for large-scale nonlinear optimization.
 Ipopt is released as open source code under the Eclipse Public License (EPL).
         For more information visit http://projects.coin-or.org/Ipopt

This version of Ipopt was compiled from source code available at
    https://github.com/IDAES/Ipopt as part of the Institute for the Design of
    Advanced Energy Systems Process Systems Engineering Framework (IDAES PSE
    Framework) Copyright (c) 2018-2019. See https://github.com/IDAES/idaes-pse.

This version of Ipopt was compiled using HSL, a collection of Fortran codes
    for large-scale scientific computation.  All technical papers, sales and
    publicity material resulting from use of the HSL codes within IPOPT must
    contain the following acknowledgement:
        HSL, a collection of Fortran codes for large-scale scientific
        computation. See http://www.hsl.rl.ac.uk.
******************************************************************************

This is Ipopt version 3.13.2, running with linear solver ma27.

Number of nonzeros in equality constraint Jacobian...:      928
Number of nonzeros in inequality constraint Jacobian.:        0
Number of nonzeros in Lagrangian Hessian.............:      806

Total number of variables............................:      403
                     variables with only lower bounds:      124
                variables with lower and upper bounds:      217
                     variables with only upper bounds:        0
Total number of equality constraints.................:      402
Total number of inequality constraints...............:        0
        inequality constraints with only lower bounds:        0
   inequality constraints with lower and upper bounds:        0
        inequality constraints with only upper bounds:        0

iter    objective    inf_pr   inf_du lg(mu)  ||d||  lg(rg) alpha_du alpha_pr  ls
   0  0.0000000e+00 1.12e+00 2.22e-16  -1.0 0.00e+00    -  0.00e+00 0.00e+00   0
   1  1.7810415e-01 9.54e-01 8.09e+04  -1.0 1.58e+05    -  3.32e-01 1.64e-01h  1
   2  2.3813064e-01 9.27e-01 8.09e+04  -1.0 1.80e+05    -  5.08e-01 2.87e-02h  1
   3  1.1625434e+01 2.73e-01 4.40e+04  -1.0 1.76e+05    -  5.16e-01 9.90e-01h  1
   4  1.4057298e+01 3.40e-02 2.82e+03  -1.0 1.95e+04    -  8.00e-01 9.90e-01h  1
   5  1.4110981e+01 8.97e-04 3.15e+02  -1.0 9.76e+02    -  9.87e-01 9.90e-01h  1
   6  1.4175638e+01 5.88e-04 1.24e+04  -1.0 1.27e+03    -  9.89e-01 9.90e-01h  1
   7  1.4348756e+01 4.28e-04 1.84e+04  -1.0 3.37e+03    -  9.90e-01 9.90e-01H  1
   8  1.4111656e+01 1.62e-03 7.25e+07  -3.8 8.25e+03    -  9.51e-01 5.60e-01f  1
   9  1.4110520e+01 1.62e-06 3.06e+04  -3.8 1.59e+01    -  1.00e+00 1.00e+00h  1
In iteration 9, 31 Slacks too small, adjusting variable bounds
iter    objective    inf_pr   inf_du lg(mu)  ||d||  lg(rg) alpha_du alpha_pr  ls
  10  1.4110497e+01 1.49e-10 4.20e+08  -3.8 4.45e-01    -  1.00e+00 1.00e+00h  1
  11  1.4110497e+01 8.68e-12 2.38e-04  -3.8 1.67e-03    -  1.00e+00 1.00e+00h  1
  12  1.4110347e+01 4.76e-12 1.38e+06  -9.0 2.95e+00    -  1.00e+00 9.99e-01F  1
  13  1.4110347e+01 1.18e-11 2.35e-10  -9.0 1.79e-05    -  1.00e+00 1.00e+00h  1

Number of Iterations....: 13

                                   (scaled)                 (unscaled)
Objective...............:   1.4110346618716074e+01    1.4110346618716074e+01
Dual infeasibility......:   2.3464963305741549e-10    2.3464963305741549e-10
Constraint violation....:   1.1817657963320016e-11    1.1817657963320016e-11
Complementarity.........:   9.0909107212194256e-10    9.0909107212194256e-10
Overall NLP error.......:   1.4818186744658644e-10    9.0909107212194256e-10


Number of objective function evaluations             = 16
Number of objective gradient evaluations             = 14
Number of equality constraint evaluations            = 16
Number of inequality constraint evaluations          = 0
Number of equality constraint Jacobian evaluations   = 14
Number of inequality constraint Jacobian evaluations = 0
Number of Lagrangian Hessian evaluations             = 13
Total CPU secs in IPOPT (w/o function evaluations)   =      0.024
Total CPU secs in NLP function evaluations           =      0.236

EXIT: Optimal Solution Found.
